100 10
307 513
151 573
769 401
493 617
489 734
287 582
484 512
643 423
595 541
587 610
690 256
458 619
567 498
622 816
494 318
689 655
570 558
362 590
697 430
768 642
759 666
321 272
558 417
443 476
348 387
595 440
201 577
259 469
728 346
557 458
807 912
340 449
742 316
349 954
510 627
771 883
200 869
399 628
370 338
512 681
157 503
511 779
251 486
549 323
641 620
424 349
233 469
725 632
579 431
635 451
437 241
913 657
409 285
333 506
585 137
609 548
61 409
434 505
609 435
211 227
628 720
701 365
213 48
313 470
436 548
332 682
499 498
712 215
464 506
387 330
596 497
953 196
47 400
283 891
867 273
947 723
385 455
846 563
395 233
529 781
864 306
277 382
411 608
949 590
145 562
363 532
97 68
736 897
684 671
377 432
930 628
794 526
770 407
300 187
555 297
685 923
652 822
598 469
543 620
134 218
